Version identifier: 20.1.0.0 | 2020-11-10 | 9bedb6d68
CPXPARAM_Threads                                 1
CPXPARAM_TimeLimit                               7200
CPXPARAM_MIP_Tolerances_MIPGap                   0
Generic callback                                 0x60
1 of 1 MIP starts provided solutions.
MIP start 'm1' defined initial solution with objective 2888.4921.
Tried aggregator 1 time.
Reduced MIP has 1 rows, 1001 columns, and 1000 nonzeros.
Reduced MIP has 1000 binaries, 0 generals, 0 SOSs, and 0 indicators.
Presolve time = 0.00 sec. (0.30 ticks)
Probing time = 0.00 sec. (0.11 ticks)
Tried aggregator 1 time.
Reduced MIP has 1 rows, 1001 columns, and 1000 nonzeros.
Reduced MIP has 1000 binaries, 0 generals, 0 SOSs, and 0 indicators.
Presolve time = 0.00 sec. (0.31 ticks)
Probing time = 0.00 sec. (0.11 ticks)
MIP emphasis: balance optimality and feasibility.
MIP search method: dynamic search.
Parallel mode: none, using 1 thread.
Root relaxation solution time = 0.00 sec. (0.21 ticks)

        Nodes                                         Cuts/
   Node  Left     Objective  IInf  Best Integer    Best Bound    ItCnt     Gap

*     0+    0                         2888.4921     4368.0000            51.22%
      0     0     4368.0000     2     2888.4921     4368.0000        0   51.22%
      0     0     3640.4107     3     2888.4921 UserPurge2: 1       10   26.03%
      0     0     3371.8978     4     2888.4921 UserPurge2: 1       28   16.74%
      0     0     3279.3984     6     2888.4921 UserPurge1: 1       37   13.53%
      0     0     3233.7737     6     2888.4921 UserPurge2: 1       52   11.95%
      0     0     3141.9016     6     2888.4921 UserPurge2: 1       82    8.77%
      0     0     3124.3013     7     2888.4921 UserPurge2: 1       88    8.16%
      0     0     3110.3456     8     2888.4921 UserPurge2: 1       96    7.68%
      0     0     3104.0574    10     2888.4921 UserPurge2: 1      114    7.46%
      0     0     3087.4551    10     2888.4921 UserPurge2: 1      146    6.89%
      0     0     3063.6700     7     2888.4921 UserPurge2: 1      170    6.06%
      0     0     3055.2332     9     2888.4921 UserPurge2: 1      181    5.77%
      0     0     3044.7578     9     2888.4921 UserPurge2: 1      213    5.41%
      0     0     3038.5428    10     2888.4921 UserPurge1: 2      229    5.19%
      0     0     3033.7758     9     2888.4921 UserPurge2: 1      240    5.03%
      0     0     3026.6801    10     2888.4921 UserPurge2: 1      250    4.78%
      0     0     3021.3850    11     2888.4921 UserPurge2: 1      274    4.60%
      0     0     3016.8074     9     2888.4921 UserPurge2: 1      290    4.44%
*     0+    0                         2896.7029     3016.8074             4.15%
      0     0     3013.2258     8     2896.7029 UserPurge2: 1      306    4.02%
      0     0     3011.1737     9     2896.7029 UserPurge2: 1      321    3.95%
      0     0     3007.5596    11     2896.7029 UserPurge2: 1      342    3.83%
*     0+    0                         2900.2965     3007.5596             3.70%
      0     0     3004.9573    10     2900.2965 UserPurge2: 1      358    3.61%
      0     0     3003.5744    11     2900.2965 UserPurge2: 1      371    3.56%
*     0+    0                         2903.9307     3003.5744             3.43%
      0     0     3000.5797    12     2903.9307 UserPurge2: 1      390    3.33%
      0     0     2996.4680    12     2903.9307 UserPurge2: 1      409    3.19%
      0     0     2992.8009     9     2903.9307 UserPurge2: 1      429    3.06%
      0     0     2992.4019    10     2903.9307 UserPurge2: 1      436    3.05%
      0     0     2992.1856    11     2903.9307 UserPurge2: 1      447    3.04%
      0     0     2990.7675    12     2903.9307 UserPurge2: 1      459    2.99%
      0     0     2989.4963    13     2903.9307 UserPurge2: 1      481    2.95%
      0     0     2987.8099    14     2903.9307 UserPurge2: 1      498    2.89%
      0     0     2986.0989    14     2903.9307 UserPurge2: 1      517    2.83%
      0     0     2982.4621    14     2903.9307 UserPurge2: 1      557    2.70%
      0     0     2981.8651    14     2903.9307 UserPurge2: 1      570    2.68%
      0     0     2980.9660    14     2903.9307 UserPurge2: 1      582    2.65%
      0     0     2980.5896    15     2903.9307 UserPurge2: 1      591    2.64%
*     0+    0                         2912.4157     2980.5896             2.34%
      0     0     2980.0957    16     2912.4157 UserPurge2: 1      608    2.32%
      0     0     2979.5046    16     2912.4157 UserPurge2: 1      625    2.30%
      0     0     2978.7525    15     2912.4157 UserPurge2: 1      643    2.28%
      0     0     2977.4613    16     2912.4157 UserPurge2: 1      656    2.23%
      0     0     2975.4026    14     2912.4157 UserPurge2: 1      685    2.16%
      0     0     2974.8592    14     2912.4157 UserPurge2: 1      695    2.14%
      0     0     2974.2944    14     2912.4157 UserPurge2: 1      707    2.12%
*     0+    0                         2920.5769     2974.2944             1.84%
      0     0     2974.1533    15     2920.5769 UserPurge2: 1      713    1.83%
      0     0     2972.9620    14     2920.5769 UserPurge2: 1      727    1.79%
      0     0     2972.3418    15     2920.5769 UserPurge2: 1      748    1.77%
      0     0     2971.8300    15     2920.5769 UserPurge2: 1      758    1.75%
      0     0     2969.7244    14     2920.5769 UserPurge2: 1      780    1.68%
      0     0     2969.6821    15     2920.5769 UserPurge2: 1      783    1.68%
      0     0     2968.0687    12     2920.5769 UserPurge2: 1      796    1.63%
*     0+    0                         2922.9577     2968.0687             1.54%
      0     0     2968.0198    13     2922.9577 UserPurge2: 1      799    1.54%
      0     0     2967.6601    14     2922.9577 UserPurge2: 1      806    1.53%
      0     0     2967.5508    15     2922.9577 UserPurge2: 1      810    1.53%
      0     0     2966.9540    16     2922.9577 UserPurge2: 1      828    1.51%
      0     0     2966.5525    16     2922.9577 UserPurge2: 1      837    1.49%
      0     0     2966.4325    17     2922.9577 UserPurge2: 1      847    1.49%
      0     0     2966.1714    18     2922.9577 UserPurge2: 1      863    1.48%
      0     0     2964.8919    18     2922.9577 UserPurge2: 1      889    1.43%
      0     0     2964.5684    17     2922.9577 UserPurge2: 1      902    1.42%
      0     0     2964.3497    18     2922.9577 UserPurge2: 1      913    1.42%
      0     0     2963.8584    19     2922.9577 UserPurge2: 1      928    1.40%
      0     0     2963.4931    19     2922.9577 UserPurge2: 1      942    1.39%
      0     0     2962.6626    15     2922.9577 UserPurge2: 1      973    1.36%
*     0+    0                         2927.1852     2962.6626             1.21%
      0     0     2962.4343    15     2927.1852 UserPurge2: 1      979    1.20%
      0     0     2962.3241    16     2927.1852 UserPurge2: 1      986    1.20%
      0     0     2962.1552    16     2927.1852 UserPurge2: 1      994    1.19%
      0     0     2961.6360    16     2927.1852 UserPurge2: 1     1012    1.18%
      0     0     2961.1225    15     2927.1852 UserPurge2: 1     1033    1.16%
      0     0     2960.8075    16     2927.1852 UserPurge2: 1     1044    1.15%
      0     0     2960.4319    17     2927.1852 UserPurge2: 1     1061    1.14%
      0     0     2960.2075    18     2927.1852 UserPurge2: 1     1086    1.13%
      0     0     2960.1431    19     2927.1852 UserPurge2: 1     1095    1.13%
      0     0     2960.0499    19     2927.1852 UserPurge2: 1     1103    1.12%
      0     0     2959.8699    20     2927.1852 UserPurge2: 1     1127    1.12%
      0     0     2958.4055    17     2927.1852 UserPurge2: 1     1171    1.07%
      0     0     2957.1725    16     2927.1852 UserPurge2: 1     1195    1.02%
      0     0     2956.3807    16     2927.1852 UserPurge2: 1     1214    1.00%
      0     0     2955.9815    16     2927.1852 UserPurge2: 1     1221    0.98%
      0     0     2955.4112    17     2927.1852 UserPurge2: 1     1236    0.96%
      0     0     2955.0703    16     2927.1852 UserPurge2: 1     1253    0.95%
      0     0     2954.7274    16     2927.1852 UserPurge2: 1     1268    0.94%
      0     0     2954.4983    16     2927.1852 UserPurge2: 1     1273    0.93%
      0     0     2954.2338    17     2927.1852 UserPurge2: 1     1283    0.92%
      0     0     2954.0771    18     2927.1852 UserPurge2: 1     1300    0.92%
      0     0     2953.6745    17     2927.1852 UserPurge2: 1     1317    0.90%
      0     0     2953.5428    16     2927.1852 UserPurge2: 1     1328    0.90%
      0     0     2953.4232    16     2927.1852 UserPurge2: 1     1337    0.90%
      0     0     2953.3387    16     2927.1852 UserPurge2: 1     1348    0.89%
      0     0     2953.1751    17     2927.1852 UserPurge2: 1     1363    0.89%
      0     0     2953.1108    17     2927.1852 UserPurge2: 1     1375    0.89%
      0     0     2953.0047    18     2927.1852 UserPurge2: 1     1388    0.88%
      0     0     2952.9372    19     2927.1852 UserPurge2: 1     1398    0.88%
      0     0     2952.8473    20     2927.1852 UserPurge2: 1     1412    0.88%
      0     0     2952.6551    18     2927.1852 UserPurge2: 1     1435    0.87%
      0     0     2952.3442    19     2927.1852 UserPurge2: 1     1452    0.86%
      0     0     2952.2571    19     2927.1852 UserPurge2: 1     1460    0.86%
      0     0     2952.1682    19     2927.1852 UserPurge2: 1     1477    0.85%
      0     0     2952.0790    17     2927.1852 UserPurge2: 1     1493    0.85%
      0     0     2951.9022    18     2927.1852 UserPurge2: 1     1512    0.84%
      0     0     2951.8347    19     2927.1852 UserPurge2: 1     1522    0.84%
      0     0     2951.8030    20     2927.1852 UserPurge2: 1     1532    0.84%
      0     0     2951.6406    21     2927.1852 UserPurge2: 1     1550    0.84%
      0     0     2951.6127    22     2927.1852 UserPurge2: 1     1561    0.83%
      0     0     2951.4662    20     2927.1852 UserPurge2: 1     1580    0.83%
      0     0     2951.3305    20     2927.1852 UserPurge2: 1     1593    0.82%
      0     0     2951.2982    20     2927.1852 UserPurge2: 1     1607    0.82%
      0     0     2951.2332    21     2927.1852 UserPurge2: 1     1625    0.82%
      0     0     2950.9306    21     2927.1852 UserPurge2: 1     1649    0.81%
      0     0     2950.7370    20     2927.1852 UserPurge2: 1     1663    0.80%
      0     0     2950.6429    20     2927.1852 UserPurge2: 1     1677    0.80%
      0     0     2950.5395    20     2927.1852 UserPurge2: 1     1697    0.80%
      0     0     2950.4594    20     2927.1852 UserPurge2: 1     1714    0.80%
      0     2     2950.4594    20     2927.1852     2950.4568     1714    0.80%
Elapsed time = 97.87 sec. (696.13 ticks, tree = 0.01 MB, solutions = 8)
      1     3     2939.5302    11     2927.1852     2950.4515    20375    0.79%
      2     4     2934.8562    11     2927.1852     2939.5301    32728    0.42%
      3     5     2939.1177     4     2927.1852     2939.5293    33599    0.42%
      4     6     2939.0504     2     2927.1852     2939.5293    34335    0.42%
      5     7     2938.9625     4     2927.1852     2939.5293    34866    0.42%
      6     8     2937.0335     2     2927.1852     2939.5293    35150    0.42%
      7     9     2936.9198     2     2927.1852     2939.5293    35189    0.42%
*     8     8      integral     0     2930.4245     2939.5293    35251    0.31%
      8     8     2930.4245     0     2930.4245     2939.5293    35251    0.31%
      9     9     2936.7740     4     2930.4245     2939.5293    35388    0.31%
     11    11     2936.7580     4     2930.4245     2939.5293    35548    0.31%
Elapsed time = 653.60 sec. (77537.96 ticks, tree = 0.24 MB, solutions = 9)
     17    11     2936.7184     4     2930.4245     2939.5293    35714    0.31%
     19    13     2936.6788     4     2930.4245     2939.5293    35871    0.31%
     21    13     2936.6480     4     2930.4245     2939.5293    35994    0.31%
     25    13     2936.6020     4     2930.4245     2939.5293    36154    0.31%
     28    14     2936.5663     4     2930.4245     2939.5293    36279    0.31%
*    30+    6                         2936.0539     2939.5293             0.12%
     30     8     2936.5589     4     2936.0539     2939.5293    36479    0.12%
     34     8     2936.5295     4     2936.0539     2939.5293    36584    0.12%
     41     6     2939.1521    17     2936.0539     2939.1521    45064    0.11%
     42     7     2937.9326    31     2936.0539     2939.1521    73900    0.11%
     43     8     2938.6350     2     2936.0539     2939.1168    74749    0.10%
Elapsed time = 1459.93 sec. (241970.20 ticks, tree = 0.25 MB, solutions = 10)
     44     9     2938.1699     2     2936.0539     2939.1168    75158    0.10%
     46    11     2938.3550     2     2936.0539     2939.1168    75303    0.10%
     48    11     2938.2223     6     2936.0539     2939.1168    75422    0.10%
*    50+    5                         2938.1667     2939.1168             0.03%
     50     7     2938.1985     6     2938.1667     2939.1168    75471    0.03%
     54     4        cutoff           2938.1667     2938.9624    75648    0.03%
     55     5     2938.9367     4     2938.1667     2938.9615    76168    0.03%
     56     6     2938.9275     4     2938.1667     2938.9615    76360    0.03%
     57     7     2938.9036    15     2938.1667     2938.9615    77476    0.03%
*    60     4      integral     0     2938.5060     2938.9615    77621    0.02%
     63     1        cutoff           2938.5060     2938.9032    77744    0.01%

User cuts applied:  8414

Root node processing (before b&c):
  Real time             =   97.89 sec. (720.30 ticks)
Sequential b&c:
  Real time             = 1630.14 sec. (276360.63 ticks)
                          ------------
Total (root+branch&cut) = 1728.03 sec. (277080.94 ticks)
@Parameters: 
is_S_cut                                true
is_add_all_yinF                         true
is_start_value                          true
is_usercut                              true
is_visualization                        false
uc_only_rootnode                        false

data                                    Qi
fn                                      data/Qi/instance_800_1000.csv
mode                                    NewSubmodular
solver                                  cplex

p                                       5
r                                       2

EPS                                     1.0e-06
EPS_vio                                 1.0e-04
beta                                    0.10
gap                                     0.00
nodelimit                               Inf
timelimit                               7200.00


@PrintInfos
ItCnt: 77794
Current gap: 0.00 %
Termination Status: OPTIMAL
Primal Status: FEASIBLE_POINT
Solve Time: 1728.03 sec
Objective Value: 2938.505992
Number of Nodes:     65

CutInfo: [phase] num / time (sec) 
ZLP             [phase1]     0 / 0.00 [rLC]     0 / 0.00 [rUC]     0 / 0.00 [sLC]     0 / 0.00 [sUC]     0 / 0.00 
OldSubmodular   [phase1]     0 / 0.00 [rLC]     0 / 0.00 [rUC]     0 / 0.00 [sLC]     0 / 0.00 [sUC]     0 / 0.00 
NewSubmodular   [phase1]     0 / 0.00 [rLC]   190 / 63.22 [rUC]   731 / 31.71 [sLC]     0 / 13.53 [sUC]  8380 / 1364.64 
PMP             [phase1]     0 / 0.00 [rLC]    17 / 56.71 [rUC]     0 / 0.00 [sLC]     4 / 13.45 [sUC]    87 / 316.73 
Separation Round: [phase1] 0  [rLC] 66  [rUC] 113  [sLC] 4  [sUC] 2144
Root Best Bound 2939.530119
Root Best Integer: 2927.185219
Best Bound: 2938.505992
Best Integer: 2938.505992

